c b=3,c=241
p cnf 14 36
3 -6 0
1 2 3 -10 0
1 2 3 -11 0
2 3 -12 0
1 3 -13 0
-3 6 0
1 2 -3 10 0
-3 11 0
1 -3 12 0
1 2 -3 13 0
2 -5 0
1 2 -9 0
1 2 -14 0
-2 3 10 0
3 -14 0
-2 -3 -10 0
-2 -3 14 0
-2 5 0
1 -2 9 0
-2 11 0
1 -2 12 0
1 -2 -13 0
1 -4 0
1 -8 0
-1 3 10 0
-1 -3 -10 0
-1 -3 14 0
-1 2 9 0
-1 2 -13 0
-1 -2 -9 0
-1 -2 13 0
-1 4 0
-1 8 0
-1 11 0
-1 -12 0
-7 0
